* ENCODING=ISO-8859-1
NAME          CPLEX
ROWS
 N  obj1    
 G  c1      
 G  c2      
 G  c3      
 G  c4      
 G  c5      
 G  c6      
 G  c7      
 G  c8      
 G  c9      
 G  c10     
 G  c11     
 G  c12     
 G  c13     
 G  c14     
 G  c15     
 G  c16     
 G  c17     
 G  c18     
 G  c19     
 G  c20     
 G  c21     
 G  c22     
 G  c23     
 G  c24     
 G  c25     
 G  c26     
 G  c27     
 G  c28     
 G  c29     
 G  c30     
COLUMNS
    MARK0000  'MARKER'                 'INTORG'
    x1        obj1                            1
    x1        c15                           278
    x2        obj1                            1
    x2        c4                            770
    x2        c10                           101
    x2        c21                           982
    x2        c28                           147
    x3        obj1                            1
    x3        c7                            555
    x3        c9                            619
    x3        c21                           981
    x3        c22                           561
    x3        c23                           159
    x4        obj1                            1
    x4        c8                            345
    x4        c10                           223
    x4        c19                           881
    x4        c25                           621
    x4        c28                           309
    x5        obj1                            1
    x5        c3                            510
    x5        c10                           404
    x5        c14                           181
    x5        c27                           950
    x5        c29                           837
    x6        obj1                            1
    x6        c10                           836
    x6        c12                           645
    x6        c22                           501
    x6        c25                           864
    x7        obj1                            1
    x7        c7                            782
    x7        c20                           641
    x7        c23                           609
    x8        obj1                            1
    x8        c4                            427
    x8        c11                           141
    x8        c29                           190
    x9        obj1                            1
    x9        c2                            989
    x9        c21                           879
    x9        c22                           757
    x10       obj1                            1
    x10       c5                            678
    x10       c21                           401
    x10       c23                           925
    x11       obj1                            1
    x11       c14                           364
    x11       c17                           462
    x11       c18                           670
    x11       c29                           252
    x12       obj1                            1
    x12       c12                           226
    x13       obj1                            1
    x13       c17                           346
    x13       c18                           178
    x13       c27                           231
    x14       obj1                            1
    x14       c8                            740
    x14       c27                           229
    x15       obj1                            1
    x15       c3                            383
    x15       c9                            301
    x15       c12                           520
    x16       obj1                            1
    x16       c11                           740
    x16       c20                           934
    x17       obj1                            1
    x17       c3                            906
    x17       c18                           243
    x17       c24                           709
    x17       c27                           690
    x17       c30                           573
    x18       obj1                            1
    x18       c16                           510
    x18       c26                           554
    x19       obj1                            1
    x19       c7                            472
    x19       c13                           954
    x19       c19                           340
    x20       obj1                            1
    x20       c5                            237
    x20       c6                            614
    x20       c23                           955
    x21       obj1                            1
    x21       c4                            485
    x21       c15                           988
    x22       obj1                            1
    x22       c9                            624
    x22       c28                           582
    x23       obj1                            1
    x23       c3                            658
    x23       c4                            111
    x23       c5                            855
    x23       c7                            273
    x23       c9                            787
    x23       c16                           887
    x23       c17                           791
    x23       c28                           887
    x24       obj1                            1
    x24       c22                           459
    x24       c28                           352
    x25       obj1                            1
    x25       c5                            871
    x25       c8                            458
    x25       c18                           139
    x25       c22                           388
    x25       c23                           730
    x26       obj1                            1
    x26       c1                            945
    x26       c3                            862
    x26       c15                           832
    x26       c26                           346
    x27       obj1                            1
    x27       c4                            830
    x27       c7                            394
    x27       c10                           833
    x27       c30                           886
    x28       obj1                            1
    x28       c16                           232
    x28       c29                           820
    x29       obj1                            1
    x29       c16                           982
    x30       obj1                            1
    x30       c3                            246
    x30       c5                            978
    x30       c9                            927
    x30       c12                          1000
    x30       c20                           384
    x30       c23                           282
    x31       obj1                            1
    x31       c9                            563
    x31       c15                           857
    x31       c22                           317
    x32       obj1                            1
    x32       c2                            949
    x32       c19                           674
    x32       c24                           814
    x32       c28                           237
    x33       obj1                            1
    x33       c5                            979
    x33       c25                           559
    x33       c27                           655
    x34       obj1                            1
    x34       c8                            261
    x34       c10                           203
    x34       c29                           666
    x35       obj1                            1
    x35       c6                            444
    x36       obj1                            1
    x36       c17                           296
    x36       c21                           330
    x36       c27                           713
    x36       c28                           634
    x36       c29                           436
    x37       obj1                            1
    x37       c5                            592
    x37       c8                            826
    x38       obj1                            1
    x38       c5                            608
    x38       c15                           434
    x39       obj1                            1
    x39       c4                            849
    x39       c8                            184
    x39       c10                           992
    x39       c11                           382
    x39       c12                           171
    x39       c17                           424
    x40       obj1                            1
    x40       c16                           547
    x40       c18                           954
    x41       obj1                            1
    x41       c3                            128
    x41       c9                            167
    x41       c12                           239
    x41       c19                           601
    x41       c24                           436
    x42       obj1                            1
    x42       c1                            801
    x42       c9                            528
    x42       c18                           548
    x42       c30                           515
    x43       obj1                            1
    x43       c22                           556
    x43       c25                           115
    x44       obj1                            1
    x44       c22                           651
    x44       c25                           214
    x45       obj1                            1
    x45       c5                            209
    x45       c18                           610
    x45       c24                           549
    x45       c25                           721
    x45       c29                           152
    x46       obj1                            1
    x46       c10                           864
    x46       c15                           518
    x46       c21                           362
    x47       obj1                            1
    x47       c3                            606
    x47       c13                           353
    x47       c20                           656
    x48       obj1                            1
    x48       c2                            497
    x48       c4                            837
    x49       obj1                            1
    x49       c19                           423
    x49       c21                           716
    x49       c28                           180
    x49       c29                           864
    x50       obj1                            1
    x50       c9                            615
    x50       c20                           537
    x50       c24                           294
    x51       obj1                            1
    x52       obj1                            1
    x52       c14                           817
    x52       c29                           555
    x53       obj1                            1
    x53       c6                            659
    x53       c10                           172
    x53       c25                           150
    x54       obj1                            1
    x54       c8                            698
    x54       c15                           507
    x54       c17                           329
    x54       c19                           334
    x55       obj1                            1
    x55       c23                           927
    x56       obj1                            1
    x56       c18                           267
    x56       c27                           364
    x57       obj1                            1
    x57       c13                           556
    x57       c23                           336
    x57       c25                           543
    x57       c26                           862
    x58       obj1                            1
    x58       c1                            244
    x58       c15                           130
    x58       c22                           639
    x58       c24                           671
    x59       obj1                            1
    x59       c3                            766
    x59       c15                           433
    x59       c19                           273
    x60       obj1                            1
    x60       c12                           767
    x60       c21                           619
    x60       c30                           539
    MARK0001  'MARKER'                 'INTEND'
RHS
    rhs       c1                            995
    rhs       c2                           1218
    rhs       c3                           2533
    rhs       c4                           2155
    rhs       c5                           3004
    rhs       c6                            859
    rhs       c7                           1238
    rhs       c8                           1756
    rhs       c9                           2566
    rhs       c10                          2314
    rhs       c11                           632
    rhs       c12                          1784
    rhs       c13                           932
    rhs       c14                           681
    rhs       c15                          2489
    rhs       c16                          1579
    rhs       c17                          1324
    rhs       c18                          1805
    rhs       c19                          1763
    rhs       c20                          1576
    rhs       c21                          2635
    rhs       c22                          2415
    rhs       c23                          2462
    rhs       c24                          1737
    rhs       c25                          1894
    rhs       c26                           881
    rhs       c27                          1916
    rhs       c28                          1664
    rhs       c29                          2386
    rhs       c30                          1257
BOUNDS
 LI bnd       x1        0
 LI bnd       x2        0
 LI bnd       x3        0
 LI bnd       x4        0
 LI bnd       x5        0
 LI bnd       x6        0
 LI bnd       x7        0
 LI bnd       x8        0
 LI bnd       x9        0
 LI bnd       x10       0
 LI bnd       x11       0
 LI bnd       x12       0
 LI bnd       x13       0
 LI bnd       x14       0
 LI bnd       x15       0
 LI bnd       x16       0
 LI bnd       x17       0
 LI bnd       x18       0
 LI bnd       x19       0
 LI bnd       x20       0
 LI bnd       x21       0
 LI bnd       x22       0
 LI bnd       x23       0
 LI bnd       x24       0
 LI bnd       x25       0
 LI bnd       x26       0
 LI bnd       x27       0
 LI bnd       x28       0
 LI bnd       x29       0
 LI bnd       x30       0
 LI bnd       x31       0
 LI bnd       x32       0
 LI bnd       x33       0
 LI bnd       x34       0
 LI bnd       x35       0
 LI bnd       x36       0
 LI bnd       x37       0
 LI bnd       x38       0
 LI bnd       x39       0
 LI bnd       x40       0
 LI bnd       x41       0
 LI bnd       x42       0
 LI bnd       x43       0
 LI bnd       x44       0
 LI bnd       x45       0
 LI bnd       x46       0
 LI bnd       x47       0
 LI bnd       x48       0
 LI bnd       x49       0
 LI bnd       x50       0
 LI bnd       x51       0
 LI bnd       x52       0
 LI bnd       x53       0
 LI bnd       x54       0
 LI bnd       x55       0
 LI bnd       x56       0
 LI bnd       x57       0
 LI bnd       x58       0
 LI bnd       x59       0
 LI bnd       x60       0
ENDATA
